g3 1 1 0	# problem ptm
 9 0 1 0 0	# vars, constraints, objectives, ranges, eqns
 0 1	# nonlinear constraints, objectives
 0 0	# network constraints: nonlinear, linear
 0 9 0	# nonlinear vars in constraints, objectives, both
 0 0 0 1	# linear network variables; functions; arith, flags
 0 0 0 0 0	# discrete variables: binary, integer, nonlinear (b,c,o)
 0 9	# nonzeros in Jacobian, gradients
 0 0	# max name lengths: constraints, variables
 0 0 0 0 9	# common exprs: b,c,o,c1,o1
V9 1 1
1 23.3037
o0
o2
o2
o1
n1
o2
v0
v1
v2
o1
o44
o2
v4
o54
3
n0.485
o2
n-0.001
o2
n5.2095
v6
o2
n-0.001
o2
n28.5132
v7
n1
n-28.5132
V10 1 1
1 101.779
o0
o2
o2
o1
n1
o2
v0
v1
v2
o1
o44
o2
v4
o54
3
n0.752
o2
n-0.001
o2
n10.0677
v6
o2
n-0.001
o2
n111.8467
v7
n1
n-111.8467
V11 1 1
1 111.461
o0
o2
o2
o1
n1
o2
v0
v1
v2
o1
o44
o2
v4
o54
3
n0.869
o2
n-0.001
o2
n22.9274
v6
o2
n-0.001
o2
n134.3884
v7
n1
n-134.3884
V12 1 1
1 191.267
o0
o2
o2
o1
n1
o2
v0
v1
v2
o1
o44
o2
v4
o54
3
n0.982
o2
n-0.001
o2
n20.2153
v6
o2
n-0.001
o2
n211.4823
v7
n1
n-211.4823
V13 1 1
0 -28.5132
o0
o2
o2
o1
n1
o2
v0
v1
v3
o1
o44
o2
v5
o54
3
n0.11599999999999999
o2
n-0.001
o2
n5.2095
v6
o2
n0.001
o2
n23.3037
v8
n1
n23.3037
V14 1 1
0 -111.8467
o0
o2
o2
o1
n1
o2
v0
v1
v3
o1
o44
o2
v5
o54
3
n-0.502
o2
n-0.001
o2
n10.0677
v6
o2
n0.001
o2
n101.779
v8
n1
n101.779
V15 1 1
0 -134.3884
o0
o2
o2
o1
n1
o2
v0
v1
v3
o1
o44
o2
v5
o54
3
n0.16600000000000004
o2
n-0.001
o2
n22.9274
v6
o2
n0.001
o2
n111.461
v8
n1
n111.461
V16 1 1
0 -211.4823
o0
o2
o2
o1
n1
o2
v0
v1
v3
o1
o44
o2
v5
o54
3
n-0.4730000000000001
o2
n-0.001
o2
n20.2153
v6
o2
n0.001
o2
n191.267
v8
n1
n191.267
V17 0 1
o1
o2
v0
v2
o2
v1
v3
O0 0
o54
9
o5
v17
n2
o5
v9
n2
o5
v13
n2
o5
v10
n2
o5
v14
n2
o5
v11
n2
o5
v15
n2
o5
v12
n2
o5
v16
n2
b
0 -10 10
0 -10 10
0 -10 10
0 -10 10
0 -10 10
0 -10 10
0 -10 10
0 -10 10
0 -10 10
k8
0
0
0
0
0
0
0
0
G0 9
0 0
1 0
2 0
3 0
4 0
5 0
6 0
7 0
8 0
